(declare-fun var0 () String)
(assert (RegexIn var0 (RegexConcat (RegexPlus (RegexStar (Str2Reg "kk"))) (RegexConcat (RegexStar (RegexUnion (Str2Reg "i") (Str2Reg "jj"))) (RegexConcat (RegexStar (RegexPlus (Str2Reg "hh"))) (RegexConcat (RegexStar (RegexUnion (Str2Reg "ff") (Str2Reg "ggg"))) (RegexConcat (RegexUnion (RegexPlus (Str2Reg "cc")) (RegexUnion (Str2Reg "ddd") (Str2Reg "ee"))) (RegexConcat (RegexUnion (RegexUnion (Str2Reg "999") (Str2Reg "aaa")) (RegexPlus (Str2Reg "bb"))) (RegexConcat (RegexUnion (RegexUnion (Str2Reg "666") (Str2Reg "7")) (RegexPlus (Str2Reg "88"))) (RegexConcat (RegexPlus (RegexPlus (Str2Reg "5"))) (RegexConcat (RegexPlus (RegexPlus (Str2Reg "44"))) (RegexUnion (RegexUnion (Str2Reg "00") (Str2Reg "111")) (RegexUnion (Str2Reg "22") (Str2Reg "33"))))))))))))))
(assert (<= 276 (Length var0)))
(check-sat)